Minimize
  - 9 y_0 - 17 y_1 - 14 y_2 - 32 y_3 - 19 y_4 - 17 y_5 - 14 y_6 - 23 y_8
   - 20 y_9 + 57 x_0_4 + 20 x_0_5 + 45 x_0_6 + 42 x_0_8 + 50 x_0_9
   + 31 x_1_3 + 50 x_1_4 + 20 x_1_6 + 34 x_1_7 + 31 x_1_8 + 7 x_1_9
   + 12 x_2_4 + 60 x_2_5 + 28 x_2_7 + 65 x_2_8 + 95 x_3_5 + 63 x_3_7
   + 25 x_3_9 + 31 x_4_6 + 39 x_4_7 + 63 x_5_6 + 35 x_5_7 + 61 x_5_8
   + 70 x_5_9 + 28 x_6_7 + 49 x_6_8 + 20 x_6_9 + 46 x_7_8 + 39 x_7_9
   + 36 x_8_9 + 25 x_9_3 + 25 x_9_3 + 25 x_9_3 + 25 x_9_3 + 25 x_9_3
   + 25 x_9_3 + 25 x_9_3 + 25 x_9_3 + 25 x_9_3 + 25 x_9_3 + 25 x_9_3
   + 25 x_9_3 + 25 x_9_3 + 25 x_9_3 + 25 x_9_3 + 25 x_9_3 + 25 x_9_3
   + 25 x_9_3 + 25 x_9_3 + 25 x_9_3 + 25 x_9_3 + 25 x_9_3 + 25 x_9_3
   + 25 x_9_3 + 25 x_9_3 + 25 x_9_3 + 25 x_9_3 + 25 x_9_3 + 25 x_9_3
   + 25 x_9_3 + 25 x_9_3 + 25 x_9_3 + 25 x_9_3 + 25 x_9_3 + 25 x_9_3
   + 25 x_9_3 + 25 x_9_3 + 25 x_9_3 + 25 x_9_3 + 25 x_9_3 + 25 x_9_3
   + 25 x_9_3 + 25 x_9_3 + 25 x_9_3 + 25 x_9_3 + 25 x_9_3 + 25 x_9_3
   + 25 x_9_3 + 25 x_9_3 + 25 x_9_3 + 25 x_9_3 + 25 x_9_3 + 25 x_9_3
   + 25 x_9_3 + 25 x_9_3 + 25 x_9_3 + 25 x_9_3 + 25 x_9_3 + 25 x_9_3
   + 25 x_9_3 + 25 x_9_3 + 25 x_9_3 + 25 x_9_3 + 25 x_9_3 + 25 x_9_3
   + 25 x_9_3 + 25 x_9_3 + 25 x_9_3 + 25 x_9_3 + 25 x_9_3 + 25 x_9_3
   + 25 x_9_3 + 25 x_9_3 + 25 x_9_3 + 25 x_9_3 + 25 x_9_3 + 25 x_9_3
   + 25 x_9_3 + 25 x_9_3 + 25 x_9_3 + 25 x_9_3 + 25 x_9_3 + 25 x_9_3
   + 25 x_9_3 + 25 x_9_3 + 25 x_9_3 + 25 x_9_3 + 25 x_9_3 + 25 x_9_3
   + 25 x_9_3 + 25 x_9_3 + 25 x_9_3 + 25 x_9_3 + 25 x_9_3 + 25 x_9_3
   + 25 x_9_3 + 25 x_9_3 + 25 x_9_3 + 25 x_9_3 + 25 x_9_3 + 25 x_9_3
   + 25 x_9_3 + 25 x_9_3 + 25 x_9_3 + 25 x_9_3 + 25 x_9_3 + 25 x_9_3
   + 25 x_9_3 + 25 x_9_3 + 25 x_9_3 + 25 x_9_3 + 25 x_9_3 + 25 x_9_3
   + 25 x_9_3 + 25 x_9_3 + 25 x_9_3 + 25 x_9_3 + 25 x_9_3 + 25 x_9_3
   + 25 x_9_3 + 25 x_9_3 + 25 x_9_3 + 25 x_9_3 + 25 x_9_3 + 25 x_9_3
   + 25 x_9_3 + 25 x_9_3 + 25 x_9_3 + 25 x_9_3 + 25 x_9_3 + 25 x_9_3
   + 25 x_9_3 + 25 x_9_3 + 25 x_9_3 + 25 x_9_3 + 25 x_9_3 + 25 x_9_3
   + 25 x_9_3 + 25 x_9_3 + 25 x_9_3 + 25 x_9_3 + 25 x_9_3 + 25 x_9_3
   + 25 x_9_3 + 25 x_9_3 + 25 x_9_3 + 25 x_9_3 + 25 x_9_3 + 25 x_9_3
   + 25 x_9_3 + 25 x_9_3 + 25 x_9_3 + 25 x_9_3 + 25 x_9_3 + 25 x_9_3
   + 25 x_9_3 + 25 x_9_3 + 25 x_9_3 + 25 x_9_3 + 25 x_9_3 + 25 x_9_3
   + 25 x_9_3 + 25 x_9_3 + 25 x_9_3 + 25 x_9_3 + 25 x_9_3 + 25 x_9_3
   + 25 x_9_3 + 25 x_9_3 + 25 x_9_3 + 25 x_9_3 + 25 x_9_3 + 25 x_9_3
   + 25 x_9_3 + 25 x_9_3 + 25 x_9_3 + 25 x_9_3 + 25 x_9_3 + 25 x_9_3
   + 25 x_9_3 + 25 x_9_3 + 25 x_9_3 + 25 x_9_3 + 25 x_9_3 + 25 x_9_3
   + 25 x_9_3 + 25 x_9_3 + 25 x_9_3 + 25 x_9_3 + 25 x_9_3 + 25 x_9_3
   + 25 x_9_3 + 25 x_9_3 + 25 x_9_3 + 25 x_9_3 + 25 x_9_3 + 25 x_9_3
   + 25 x_9_3 + 25 x_9_3 + 25 x_9_3 + 25 x_9_3 + 25 x_9_3 + 25 x_9_3
   + 25 x_9_3 + 25 x_9_3 + 25 x_9_3 + 25 x_9_3 + 25 x_9_3 + 25 x_9_3
   + 25 x_9_3 + 25 x_9_3 + 25 x_9_3 + 25 x_9_3 + 25 x_9_3 + 25 x_9_3
   + 25 x_9_3 + 25 x_9_3 + 25 x_9_3 + 25 x_9_3 + 25 x_9_3 + 25 x_9_3
   + 25 x_9_3 + 25 x_9_3 + 25 x_9_3 + 25 x_9_3 + 25 x_9_3 + 25 x_9_3
   + 25 x_9_3 + 25 x_9_3 + 25 x_9_3 + 25 x_9_3 + 25 x_9_3 + 25 x_9_3
   + 25 x_9_3 + 25 x_9_3 + 25 x_9_3 + 25 x_9_3 + 25 x_9_3 + 25 x_9_3
   + 25 x_9_3 + 25 x_9_3 + 25 x_9_3 + 25 x_9_3 + 25 x_9_3 + 25 x_9_3
   + 25 x_9_3 + 25 x_9_3 + 25 x_9_3 + 25 x_9_3 + 25 x_9_3 + 25 x_9_3
   + 25 x_9_3 + 25 x_9_3 + 25 x_9_3 + 25 x_9_3 + 25 x_9_3 + 25 x_9_3
   + 25 x_9_3 + 25 x_9_3 + 25 x_9_3 + 25 x_9_3 + 25 x_9_3 + 25 x_9_3
   + 25 x_9_3 + 25 x_9_3 + 25 x_9_3 + 25 x_9_3 + 25 x_9_3 + 25 x_9_3
   + 25 x_9_3 + 25 x_9_3 + 25 x_9_3 + 25 x_9_3 + 25 x_9_3 + 25 x_9_3
   + 25 x_9_3 + 25 x_9_3 + 25 x_9_3 + 25 x_9_3 + 25 x_9_3 + 25 x_9_3
   + 25 x_9_3 + 25 x_9_3 + 25 x_9_3 + 25 x_9_3 + 25 x_9_3 + 25 x_9_3
   + 25 x_9_3 + 25 x_9_3 + 165 Constant
Subject To
 c_0: y_0 = 1
 c_1_0: y_0 >= 1
 c_1_1: y_1 >= 1
 c_1_2: y_2 >= 1
 c_1_3: y_3 >= 1
 c_1_4: y_4 >= 1
 c_1_5: y_5 >= 1
 c_1_6: y_6 >= 1
 c_1_7: y_7 >= 1
 c_1_8: y_8 >= 1
 c_1_9: y_9 >= 1
 c_2_0: - 2 y_0 + x_0_4 + x_0_5 + x_0_6 + x_0_8 + x_0_9 = 0
 c_2_1: - 2 y_1 + x_1_3 + x_1_4 + x_1_6 + x_1_7 + x_1_8 + x_1_9 = 0
 c_2_2: - 2 y_2 + x_2_4 + x_2_5 + x_2_7 + x_2_8 = 0
 c_2_3: - 2 y_3 + x_1_3 + x_3_5 + x_3_7 + 290 x_9_3 = 0
 c_2_4: - 2 y_4 + x_0_4 + x_1_4 + x_2_4 + x_4_6 + x_4_7 = 0
 c_2_5: - 2 y_5 + x_0_5 + x_2_5 + x_3_5 + x_5_6 + x_5_7 + x_5_8 + x_5_9
   = 0
 c_2_6: - 2 y_6 + x_0_6 + x_1_6 + x_4_6 + x_5_6 + x_6_7 + x_6_8 + x_6_9
   = 0
 c_2_7: - 2 y_7 + x_1_7 + x_2_7 + x_3_7 + x_4_7 + x_5_7 + x_6_7 + x_7_8
   + x_7_9 = 0
 c_2_8: - 2 y_8 + x_0_8 + x_1_8 + x_2_8 + x_5_8 + x_6_8 + x_7_8 + x_8_9
   = 0
 c_2_9: - 2 y_9 + x_0_9 + x_1_9 + x_5_9 + x_6_9 + x_7_9 + x_8_9 + 290 x_9_3
   = 0
Bounds
 Constant = 1
Binaries
 y_0 y_1 y_2 y_3 y_4 y_5 y_6 y_7 y_8 y_9 x_0_4 x_0_5 x_0_6 x_0_8 x_0_9
 x_1_3 x_1_4 x_1_6 x_1_7 x_1_8 x_1_9 x_2_4 x_2_5 x_2_7 x_2_8 x_3_5 x_3_7
 x_3_9 x_4_6 x_4_7 x_5_6 x_5_7 x_5_8 x_5_9 x_6_7 x_6_8 x_6_9 x_7_8 x_7_9
 x_8_9 x_9_3 x_9_3 x_9_3 x_9_3 x_9_3 x_9_3 x_9_3 x_9_3 x_9_3 x_9_3 x_9_3
 x_9_3 x_9_3 x_9_3 x_9_3 x_9_3 x_9_3 x_9_3 x_9_3 x_9_3 x_9_3 x_9_3 x_9_3
 x_9_3 x_9_3 x_9_3 x_9_3 x_9_3 x_9_3 x_9_3 x_9_3 x_9_3 x_9_3 x_9_3 x_9_3
 x_9_3 x_9_3 x_9_3 x_9_3 x_9_3 x_9_3 x_9_3 x_9_3 x_9_3 x_9_3 x_9_3 x_9_3
 x_9_3 x_9_3 x_9_3 x_9_3 x_9_3 x_9_3 x_9_3 x_9_3 x_9_3 x_9_3 x_9_3 x_9_3
 x_9_3 x_9_3 x_9_3 x_9_3 x_9_3 x_9_3 x_9_3 x_9_3 x_9_3 x_9_3 x_9_3 x_9_3
 x_9_3 x_9_3 x_9_3 x_9_3 x_9_3 x_9_3 x_9_3 x_9_3 x_9_3 x_9_3 x_9_3 x_9_3
 x_9_3 x_9_3 x_9_3 x_9_3 x_9_3 x_9_3 x_9_3 x_9_3 x_9_3 x_9_3 x_9_3 x_9_3
 x_9_3 x_9_3 x_9_3 x_9_3 x_9_3 x_9_3 x_9_3 x_9_3 x_9_3 x_9_3 x_9_3 x_9_3
 x_9_3 x_9_3 x_9_3 x_9_3 x_9_3 x_9_3 x_9_3 x_9_3 x_9_3 x_9_3 x_9_3 x_9_3
 x_9_3 x_9_3 x_9_3 x_9_3 x_9_3 x_9_3 x_9_3 x_9_3 x_9_3 x_9_3 x_9_3 x_9_3
 x_9_3 x_9_3 x_9_3 x_9_3 x_9_3 x_9_3 x_9_3 x_9_3 x_9_3 x_9_3 x_9_3 x_9_3
 x_9_3 x_9_3 x_9_3 x_9_3 x_9_3 x_9_3 x_9_3 x_9_3 x_9_3 x_9_3 x_9_3 x_9_3
 x_9_3 x_9_3 x_9_3 x_9_3 x_9_3 x_9_3 x_9_3 x_9_3 x_9_3 x_9_3 x_9_3 x_9_3
 x_9_3 x_9_3 x_9_3 x_9_3 x_9_3 x_9_3 x_9_3 x_9_3 x_9_3 x_9_3 x_9_3 x_9_3
 x_9_3 x_9_3 x_9_3 x_9_3 x_9_3 x_9_3 x_9_3 x_9_3 x_9_3 x_9_3 x_9_3 x_9_3
 x_9_3 x_9_3 x_9_3 x_9_3 x_9_3 x_9_3 x_9_3 x_9_3 x_9_3 x_9_3 x_9_3 x_9_3
 x_9_3 x_9_3 x_9_3 x_9_3 x_9_3 x_9_3 x_9_3 x_9_3 x_9_3 x_9_3 x_9_3 x_9_3
 x_9_3 x_9_3 x_9_3 x_9_3 x_9_3 x_9_3 x_9_3 x_9_3 x_9_3 x_9_3 x_9_3 x_9_3
 x_9_3 x_9_3 x_9_3 x_9_3 x_9_3 x_9_3 x_9_3 x_9_3 x_9_3 x_9_3 x_9_3 x_9_3
 x_9_3 x_9_3 x_9_3 x_9_3 x_9_3 x_9_3 x_9_3 x_9_3 x_9_3 x_9_3 x_9_3 x_9_3
 x_9_3 x_9_3 x_9_3 x_9_3 x_9_3 x_9_3 x_9_3 x_9_3 x_9_3 x_9_3 x_9_3 x_9_3
 x_9_3 x_9_3 x_9_3 x_9_3 x_9_3 x_9_3 x_9_3 x_9_3 x_9_3 x_9_3 x_9_3 x_9_3
 x_9_3 x_9_3 x_9_3 x_9_3 x_9_3 x_9_3 x_9_3 x_9_3 x_9_3 x_9_3 x_9_3 x_9_3
 x_9_3 x_9_3
End
